(set-logic HORN)


(declare-fun |bin_without_checking_1089$unknown:26| ( Int Int Int Int Int Int Int Int ) Bool)
(declare-fun |main_1033$unknown:37| ( Int Int Int Int Int Int ) Bool)
(declare-fun |bin_1030$unknown:18| ( Int Int Int Int Int Int Int Int Int ) Bool)
(declare-fun |bin_without_checking_1089$unknown:27| ( Int Int Int Int Int Int Int Int Int ) Bool)
(declare-fun |bin_1030$unknown:9| ( Int Int Int Int Int Int Int Int Int ) Bool)
(declare-fun |bin_1030$unknown:17| ( Int Int Int Int Int Int Int Int ) Bool)
(declare-fun |bin_1030$unknown:8| ( Int Int Int Int Int Int Int Int ) Bool)
(declare-fun |fail$unknown:30| ( Int ) Bool)

(assert
  (forall ( (A Int) (B Int) (C Int) (D Int) (E Int) (F Int) (G Int) (H Int) (I Int) (J Int) (K Int) (L Int) (M Int) (N Int) (O Int) (P Int) (Q Int) (R Int) (S Int) (T Int) (U Int) (V Int) (W Int) (X Int) (Y Int) (v_25 Int) (v_26 Int) (v_27 Int) ) 
    (=>
      (and
        (|bin_1030$unknown:8| A G F E D C B Y)
        (|bin_without_checking_1089$unknown:27| X W O K P V v_25 v_26 v_27)
        (|bin_without_checking_1089$unknown:26| O N M L K J I H)
        (let ((a!1 (= (= 0 U) (or (not (= 0 T)) (not (= 0 S))))))
  (and (= v_25 O)
       (= v_26 K)
       (= v_27 P)
       (not (= (= 0 T) (>= O K)))
       (not (= (= 0 S) (<= O 0)))
       (not (= (= 0 R) (= K 0)))
       (= 0 U)
       (= 0 R)
       (= W (+ (- 1) O))
       (= V (+ (- 1) K))
       (= Q (+ (- 1) K))
       (= P 1)
       (not a!1)))
      )
      (|bin_without_checking_1089$unknown:26| A G F E D C B Y)
    )
  )
)
(assert
  (forall ( (A Int) (B Int) (C Int) (D Int) (E Int) (F Int) (G Int) (H Int) (I Int) (J Int) (K Int) (L Int) (M Int) (N Int) (O Int) (v_15 Int) (v_16 Int) (v_17 Int) ) 
    (=>
      (and
        (|bin_without_checking_1089$unknown:26| H G F E D C B A)
        (let ((a!1 (= (= 0 M) (or (not (= 0 L)) (not (= 0 K))))))
  (and (not (= (= 0 L) (>= H D)))
       (not (= (= 0 K) (<= H 0)))
       (not (= (= 0 J) (= D 0)))
       (= 0 M)
       (= 0 J)
       (= O (+ (- 1) H))
       (= N (+ (- 1) D))
       (= I 1)
       (not a!1)
       (= v_15 H)
       (= v_16 D)
       (= v_17 I)))
      )
      (|bin_without_checking_1089$unknown:26| O H D I N v_15 v_16 v_17)
    )
  )
)
(assert
  (forall ( (A Int) (B Int) (C Int) (D Int) (E Int) (F Int) (G Int) (H Int) (I Int) (v_9 Int) (v_10 Int) (v_11 Int) ) 
    (=>
      (and
        (|main_1033$unknown:37| F E D C B A)
        (let ((a!1 (= (= 0 I) (and (not (= 0 G)) (not (= 0 H))))))
  (and (not (= (= 0 H) (>= F 0)))
       (not (= (= 0 G) (>= E 0)))
       (not (= 0 I))
       (not a!1)
       (= v_9 C)
       (= v_10 B)
       (= v_11 A)))
      )
      (|bin_without_checking_1089$unknown:26| F C B A E v_9 v_10 v_11)
    )
  )
)
(assert
  (forall ( (A Int) (B Int) (C Int) (D Int) (E Int) (F Int) (G Int) (H Int) (I Int) (J Int) (K Int) (L Int) (M Int) (N Int) (O Int) (P Int) (Q Int) (R Int) (S Int) (T Int) (U Int) (V Int) (W Int) (X Int) (Y Int) (Z Int) (v_26 Int) (v_27 Int) (v_28 Int) ) 
    (=>
      (and
        (|bin_1030$unknown:8| G F E D C B A Z)
        (|bin_without_checking_1089$unknown:27| Y X P L Q W v_26 v_27 v_28)
        (|bin_without_checking_1089$unknown:27| H G F E D C B A Z)
        (|bin_without_checking_1089$unknown:26| P O N M L K J I)
        (let ((a!1 (= (= 0 V) (or (not (= 0 U)) (not (= 0 T))))))
  (and (= v_26 P)
       (= v_27 L)
       (= v_28 Q)
       (not (= (= 0 U) (>= P L)))
       (not (= (= 0 T) (<= P 0)))
       (not (= (= 0 S) (= L 0)))
       (= 0 V)
       (= 0 S)
       (= X (+ (- 1) P))
       (= W (+ (- 1) L))
       (= R (+ (- 1) L))
       (= Q 1)
       (not a!1)))
      )
      (|bin_1030$unknown:9| H G F E D C B A Z)
    )
  )
)
(assert
  (forall ( (A Int) (B Int) (C Int) (D Int) (E Int) (F Int) (G Int) (H Int) (I Int) (J Int) (K Int) (L Int) (M Int) (N Int) (O Int) (P Int) (Q Int) (R Int) (S Int) (T Int) (U Int) (V Int) (W Int) (X Int) (Y Int) (Z Int) (A1 Int) (B1 Int) (C1 Int) (D1 Int) (E1 Int) (F1 Int) (G1 Int) (H1 Int) (I1 Int) (J1 Int) (K1 Int) (L1 Int) (M1 Int) (N1 Int) (O1 Int) (P1 Int) (Q1 Int) (R1 Int) (S1 Int) (T1 Int) (U1 Int) (V1 Int) (W1 Int) (X1 Int) (Y1 Int) (Z1 Int) (A2 Int) (B2 Int) (C2 Int) (D2 Int) (E2 Int) (F2 Int) (G2 Int) (H2 Int) ) 
    (=>
      (and
        (|bin_1030$unknown:17| C B J I H G F E)
        (|bin_1030$unknown:9| K C B J I H G F E)
        (let ((a!1 (= (= 0 H2) (or (not (= 0 G2)) (not (= 0 C1)))))
      (a!2 (= (= 0 G2) (and (not (= 0 F2)) (not (= 0 N1)))))
      (a!3 (= (= 0 F2) (and (not (= 0 Y1)) (not (= 0 E2)))))
      (a!4 (= (= 0 C1) (and (not (= 0 V)) (not (= 0 B1))))))
  (and (not (= (= 0 B1) (>= A1 0)))
       (= (= 0 V) (<= P U))
       (not (= (= 0 N1) (>= H1 M1)))
       (not a!1)
       (not a!2)
       (not a!3)
       (not (= (= 0 E2) (>= D2 0)))
       (= (= 0 Y1) (<= S1 X1))
       (not (= 0 I))
       (not (= 0 H2))
       (= H1 (+ F1 G1))
       (= G1 B)
       (= F1 (+ D1 E1))
       (= E1 0)
       (= D1 0)
       (= A1 (+ Y Z))
       (= Z C)
       (= Y (+ W X))
       (= X 0)
       (= W 0)
       (= U (+ S T))
       (= T C)
       (= S (+ Q R))
       (= R 0)
       (= Q 0)
       (= P (+ N O))
       (= O B)
       (= N (+ L M))
       (= M 0)
       (= L 0)
       (= D 1)
       (= A K)
       (= I1 0)
       (= Q1 (+ O1 P1))
       (= P1 J)
       (= O1 0)
       (= M1 (+ K1 L1))
       (= L1 C)
       (= K1 (+ I1 J1))
       (= J1 0)
       (= D2 (+ B2 C2))
       (= C2 (* (- 1) C))
       (= B2 (+ Z1 A2))
       (= A2 H)
       (= Z1 0)
       (= X1 (+ V1 W1))
       (= W1 (* (- 1) C))
       (= V1 (+ T1 U1))
       (= U1 H)
       (= T1 0)
       (= S1 (+ Q1 R1))
       (= R1 (* (- 1) B))
       (not a!4)))
      )
      (|bin_1030$unknown:18| A C B J I H G F E)
    )
  )
)
(assert
  (forall ( (A Int) (B Int) (C Int) (D Int) (E Int) (F Int) (G Int) (H Int) (I Int) (J Int) (K Int) ) 
    (=>
      (and
        (|bin_1030$unknown:17| C B J I H G F E)
        (|bin_1030$unknown:9| K C B J I H G F E)
        (and (= D 1) (= A K) (= 0 I))
      )
      (|bin_1030$unknown:18| A C B J I H G F E)
    )
  )
)
(assert
  (forall ( (A Int) (B Int) (C Int) (D Int) (E Int) (F Int) (G Int) (H Int) (I Int) (J Int) (K Int) (L Int) (M Int) (N Int) (O Int) (P Int) (Q Int) (R Int) (S Int) (T Int) (U Int) (V Int) (W Int) (X Int) (Y Int) (Z Int) (A1 Int) (B1 Int) (C1 Int) (D1 Int) (E1 Int) (F1 Int) (G1 Int) (H1 Int) (I1 Int) (J1 Int) (K1 Int) (L1 Int) (M1 Int) (N1 Int) (O1 Int) (P1 Int) (Q1 Int) (R1 Int) (S1 Int) (T1 Int) (U1 Int) (V1 Int) (W1 Int) (X1 Int) (Y1 Int) (Z1 Int) (A2 Int) (B2 Int) (C2 Int) (D2 Int) (E2 Int) (F2 Int) ) 
    (=>
      (and
        (|bin_1030$unknown:17| B A I H G F E D)
        (let ((a!1 (= (= 0 F2) (or (not (= 0 E2)) (not (= 0 A1)))))
      (a!2 (= (= 0 E2) (and (not (= 0 D2)) (not (= 0 L1)))))
      (a!3 (= (= 0 D2) (and (not (= 0 W1)) (not (= 0 C2)))))
      (a!4 (= (= 0 A1) (and (not (= 0 T)) (not (= 0 Z))))))
  (and (not (= (= 0 Z) (>= Y 0)))
       (= (= 0 T) (<= N S))
       (not (= (= 0 L1) (>= F1 K1)))
       (not a!1)
       (not a!2)
       (not a!3)
       (not (= (= 0 C2) (>= B2 0)))
       (= (= 0 W1) (<= Q1 V1))
       (not (= 0 H))
       (not (= 0 F2))
       (= F1 (+ D1 E1))
       (= E1 A)
       (= D1 (+ B1 C1))
       (= C1 0)
       (= B1 0)
       (= Y (+ W X))
       (= X B)
       (= W (+ U V))
       (= V 0)
       (= U 0)
       (= S (+ Q R))
       (= R B)
       (= Q (+ O P))
       (= P 0)
       (= O 0)
       (= N (+ L M))
       (= M A)
       (= L (+ J K))
       (= K 0)
       (= J 0)
       (= C 1)
       (= G1 0)
       (= O1 (+ M1 N1))
       (= N1 I)
       (= M1 0)
       (= K1 (+ I1 J1))
       (= J1 B)
       (= I1 (+ G1 H1))
       (= H1 0)
       (= B2 (+ Z1 A2))
       (= A2 (* (- 1) B))
       (= Z1 (+ X1 Y1))
       (= Y1 G)
       (= X1 0)
       (= V1 (+ T1 U1))
       (= U1 (* (- 1) B))
       (= T1 (+ R1 S1))
       (= S1 G)
       (= R1 0)
       (= Q1 (+ O1 P1))
       (= P1 (* (- 1) A))
       (not a!4)))
      )
      (|bin_1030$unknown:8| B A I H G F E D)
    )
  )
)
(assert
  (forall ( (A Int) (B Int) (C Int) (D Int) (E Int) (F Int) (G Int) (H Int) (I Int) ) 
    (=>
      (and
        (|bin_1030$unknown:17| B A I H G F E D)
        (and (= C 1) (= 0 H))
      )
      (|bin_1030$unknown:8| B A I H G F E D)
    )
  )
)
(assert
  (forall ( (A Int) (B Int) (C Int) (D Int) (E Int) (F Int) (G Int) (H Int) (I Int) (J Int) (K Int) (L Int) (M Int) (N Int) (O Int) (P Int) (Q Int) (R Int) (S Int) (T Int) (U Int) (V Int) (W Int) (X Int) (Y Int) (Z Int) (A1 Int) (B1 Int) (C1 Int) (D1 Int) (E1 Int) (F1 Int) (G1 Int) (H1 Int) (I1 Int) (J1 Int) (K1 Int) (L1 Int) (M1 Int) (N1 Int) (O1 Int) (P1 Int) (Q1 Int) (R1 Int) (S1 Int) (T1 Int) (U1 Int) (V1 Int) (W1 Int) (X1 Int) (Y1 Int) (Z1 Int) (A2 Int) (B2 Int) (C2 Int) (D2 Int) (E2 Int) (F2 Int) ) 
    (=>
      (and
        (|bin_1030$unknown:17| B A H G F E D C)
        (let ((a!1 (= (= 0 E2) (or (not (= 0 D2)) (not (= 0 Z)))))
      (a!2 (= (= 0 D2) (and (not (= 0 C2)) (not (= 0 K1)))))
      (a!3 (= (= 0 C2) (and (not (= 0 V1)) (not (= 0 B2)))))
      (a!4 (= (= 0 Z) (and (not (= 0 S)) (not (= 0 Y))))))
  (and (not (= (= 0 Y) (>= X 0)))
       (= (= 0 S) (<= M R))
       (not (= (= 0 K1) (>= E1 J1)))
       (not a!1)
       (not a!2)
       (not a!3)
       (not (= (= 0 B2) (>= A2 0)))
       (= (= 0 V1) (<= P1 U1))
       (not (= 0 G))
       (= 0 E2)
       (= F1 0)
       (= E1 (+ C1 D1))
       (= D1 A)
       (= C1 (+ A1 B1))
       (= B1 0)
       (= A1 0)
       (= X (+ V W))
       (= W B)
       (= V (+ T U))
       (= U 0)
       (= T 0)
       (= R (+ P Q))
       (= Q B)
       (= P (+ N O))
       (= O 0)
       (= N 0)
       (= M (+ K L))
       (= L A)
       (= K (+ I J))
       (= J 0)
       (= I 0)
       (= G1 0)
       (= O1 (* (- 1) A))
       (= N1 (+ L1 M1))
       (= M1 H)
       (= L1 0)
       (= J1 (+ H1 I1))
       (= I1 B)
       (= H1 (+ F1 G1))
       (= F2 1)
       (= A2 (+ Y1 Z1))
       (= Z1 (* (- 1) B))
       (= Y1 (+ W1 X1))
       (= X1 F)
       (= W1 0)
       (= U1 (+ S1 T1))
       (= T1 (* (- 1) B))
       (= S1 (+ Q1 R1))
       (= R1 F)
       (= Q1 0)
       (= P1 (+ N1 O1))
       (not a!4)))
      )
      (|fail$unknown:30| F2)
    )
  )
)
(assert
  (forall ( (A Int) (B Int) (C Int) (D Int) (E Int) (F Int) (G Int) (H Int) (I Int) (J Int) (K Int) (L Int) (M Int) (N Int) (O Int) (P Int) (Q Int) (R Int) (S Int) (v_19 Int) (v_20 Int) (v_21 Int) (v_22 Int) (v_23 Int) (v_24 Int) (v_25 Int) ) 
    (=>
      (and
        (|bin_1030$unknown:18| L I v_19 E J K v_20 v_21 v_22)
        (|bin_without_checking_1089$unknown:27| S R I E J Q v_23 v_24 v_25)
        (|bin_without_checking_1089$unknown:26| I H G F E D C B)
        (let ((a!1 (= (= 0 P) (or (not (= 0 N)) (not (= 0 O))))))
  (and (= v_19 I)
       (= v_20 I)
       (= v_21 E)
       (= v_22 J)
       (= v_23 I)
       (= v_24 E)
       (= v_25 J)
       (not (= (= 0 O) (>= I E)))
       (not (= (= 0 N) (<= I 0)))
       (not (= (= 0 M) (= E 0)))
       (= 0 P)
       (= 0 M)
       (= A (+ S L))
       (= R (+ (- 1) I))
       (= Q (+ (- 1) E))
       (= K (+ (- 1) E))
       (= J 1)
       (not a!1)))
      )
      (|bin_without_checking_1089$unknown:27| A I H G F E D C B)
    )
  )
)
(assert
  (forall ( (A Int) (B Int) (C Int) (D Int) (E Int) (F Int) (G Int) (H Int) (I Int) (J Int) (K Int) ) 
    (=>
      (and
        (|bin_without_checking_1089$unknown:26| I H G F E D C B)
        (and (not (= 0 K)) (= J 1) (= A 1) (not (= (= 0 K) (= E 0))))
      )
      (|bin_without_checking_1089$unknown:27| A I H G F E D C B)
    )
  )
)
(assert
  (forall ( (A Int) (B Int) (C Int) (D Int) (E Int) (F Int) (G Int) (H Int) (I Int) (J Int) (K Int) (L Int) (M Int) (N Int) ) 
    (=>
      (and
        (|bin_without_checking_1089$unknown:26| I H G F E D C B)
        (let ((a!1 (= (= 0 N) (or (not (= 0 M)) (not (= 0 L))))))
  (and (not (= (= 0 M) (>= I E)))
       (not (= (= 0 L) (<= I 0)))
       (not (= (= 0 K) (= E 0)))
       (not (= 0 N))
       (= 0 K)
       (= J 1)
       (= A 1)
       (not a!1)))
      )
      (|bin_without_checking_1089$unknown:27| A I H G F E D C B)
    )
  )
)
(assert
  (forall ( (A Int) (B Int) (C Int) (D Int) (E Int) (F Int) (G Int) (H Int) (I Int) (J Int) (K Int) (L Int) (M Int) (N Int) (O Int) (P Int) (Q Int) (v_17 Int) (v_18 Int) (v_19 Int) (v_20 Int) (v_21 Int) (v_22 Int) (v_23 Int) ) 
    (=>
      (and
        (|bin_without_checking_1089$unknown:26| H G F E D C B A)
        (|bin_without_checking_1089$unknown:27| Q P H D I O v_17 v_18 v_19)
        (let ((a!1 (= (= 0 N) (or (not (= 0 L)) (not (= 0 M))))))
  (and (= v_17 H)
       (= v_18 D)
       (= v_19 I)
       (not (= (= 0 M) (>= H D)))
       (not (= (= 0 L) (<= H 0)))
       (not (= (= 0 K) (= D 0)))
       (= 0 N)
       (= 0 K)
       (= P (+ (- 1) H))
       (= O (+ (- 1) D))
       (= J (+ (- 1) D))
       (= I 1)
       (not a!1)
       (= v_20 H)
       (= v_21 H)
       (= v_22 D)
       (= v_23 I)))
      )
      (|bin_1030$unknown:17| H v_20 D I J v_21 v_22 v_23)
    )
  )
)
(assert
  (forall ( (A Int) (B Int) (C Int) (D Int) (E Int) (F Int) ) 
    (=>
      (and
        (and (= E 0) (= D 0) (= C 0) (= F 1))
      )
      (|main_1033$unknown:37| A B F E D C)
    )
  )
)
(assert
  (forall ( (A Int) ) 
    (=>
      (and
        (|fail$unknown:30| A)
        true
      )
      false
    )
  )
)

(check-sat)
(exit)
